; SWAP2 EQ SWAP1 POP => POP EQ
(set-option :produce-proofs true)
; 
(set-info :status unknown)
(declare-fun storage_t ((_ BitVec 256) (_ BitVec 256) (_ BitVec 256) Int (_ BitVec 256)) (_ BitVec 256))
(declare-fun storage_s ((_ BitVec 256) (_ BitVec 256) (_ BitVec 256) Int (_ BitVec 256)) (_ BitVec 256))
(declare-fun exc_halt_t (Int) Bool)
(declare-fun exc_halt_s (Int) Bool)
(declare-fun sc_t (Int) (_ BitVec 6))
(declare-fun stack_t ((_ BitVec 256) (_ BitVec 256) (_ BitVec 256) Int (_ BitVec 6)) (_ BitVec 256))
(declare-fun stack_s ((_ BitVec 256) (_ BitVec 256) (_ BitVec 256) Int (_ BitVec 6)) (_ BitVec 256))
(declare-fun sc_s (Int) (_ BitVec 6))
(declare-fun used_gas_t ((_ BitVec 256) (_ BitVec 256) (_ BitVec 256) Int) Int)
(declare-fun used_gas_s ((_ BitVec 256) (_ BitVec 256) (_ BitVec 256) Int) Int)
(assert
 (exists ((x_0 (_ BitVec 256)) (x_1 (_ BitVec 256)) (x_2 (_ BitVec 256)) )(let (($x11691 (forall ((w (_ BitVec 256)) )(let ((?x1129 (storage_t x_0 x_1 x_2 2 w)))
 (let ((?x6388 (storage_s x_0 x_1 x_2 4 w)))
 (= ?x6388 ?x1129))))
 ))
 (let (($x2810 (exc_halt_t 2)))
 (let (($x11568 (exc_halt_s 4)))
 (let (($x3348 (= $x11568 $x2810)))
 (let (($x1769 (forall ((n (_ BitVec 6)) )(let ((?x4784 (stack_t x_0 x_1 x_2 2 n)))
 (let ((?x11552 (stack_s x_0 x_1 x_2 4 n)))
 (let (($x5009 (= ?x11552 ?x4784)))
 (or $x5009 (bvsle (sc_t 2) n))))))
 ))
 (let ((?x6629 (sc_t 2)))
 (let ((?x4305 (sc_s 4)))
 (let (($x9287 (= ?x4305 ?x6629)))
 (let ((?x7511 (used_gas_t x_0 x_1 x_2 0)))
 (let ((?x11675 (used_gas_s x_0 x_1 x_2 0)))
 (let (($x3265 (= ?x11675 ?x7511)))
 (let (($x11838 (forall ((w (_ BitVec 256)) )(let ((?x7949 (storage_t x_0 x_1 x_2 0 w)))
 (let ((?x7153 (storage_s x_0 x_1 x_2 0 w)))
 (= ?x7153 ?x7949))))
 ))
 (let (($x56 (exc_halt_t 0)))
 (let (($x57 (exc_halt_s 0)))
 (let (($x58 (= $x57 $x56)))
 (let (($x2619 (forall ((n (_ BitVec 6)) )(let ((?x63 (sc_t 0)))
 (let (($x9173 (bvsle ?x63 n)))
 (let ((?x9445 (stack_t x_0 x_1 x_2 0 n)))
 (let ((?x5701 (stack_s x_0 x_1 x_2 0 n)))
 (let (($x6252 (= ?x5701 ?x9445)))
 (or $x6252 $x9173)))))))
 ))
 (let ((?x63 (sc_t 0)))
 (let ((?x72 (sc_s 0)))
 (let (($x73 (= ?x72 ?x63)))
 (let (($x6673 (= $x2810 (or (exc_halt_t 1) (not (bvsle (_ bv0 6) (bvadd (_ bv62 6) (sc_t 1))))))))
 (let (($x6368 (forall ((w (_ BitVec 256)) )(let ((?x1580 (storage_t x_0 x_1 x_2 1 w)))
 (let ((?x1129 (storage_t x_0 x_1 x_2 2 w)))
 (= ?x1129 ?x1580))))
 ))
 (let (($x5763 (forall ((n (_ BitVec 6)) )(let ((?x11292 (sc_t 1)))
 (let ((?x11293 (bvadd (_ bv62 6) ?x11292)))
 (let (($x1291 (bvsle ?x11293 n)))
 (let ((?x9998 (stack_t x_0 x_1 x_2 1 n)))
 (let ((?x4784 (stack_t x_0 x_1 x_2 2 n)))
 (or (= ?x4784 ?x9998) $x1291)))))))
 ))
 (let (($x489 (= (used_gas_t x_0 x_1 x_2 2) (+ 3 (used_gas_t x_0 x_1 x_2 1)))))
 (let (($x5838 (= (stack_t x_0 x_1 x_2 1 (bvadd (_ bv63 6) (sc_t 1))) (stack_t x_0 x_1 x_2 1 (bvadd (_ bv62 6) (sc_t 1))))))
 (let (($x6407 (= (stack_t x_0 x_1 x_2 2 (bvadd (_ bv63 6) ?x6629)) (ite $x5838 (_ bv1 256) (_ bv0 256)))))
 (let (($x7802 (exc_halt_t 1)))
 (let (($x667 (= $x7802 (or $x56 (not (bvsle (_ bv0 6) (bvadd (_ bv63 6) ?x63)))))))
 (let (($x7585 (forall ((w (_ BitVec 256)) )(let ((?x7949 (storage_t x_0 x_1 x_2 0 w)))
 (let ((?x1580 (storage_t x_0 x_1 x_2 1 w)))
 (= ?x1580 ?x7949))))
 ))
 (let (($x8209 (forall ((n (_ BitVec 6)) )(let ((?x9445 (stack_t x_0 x_1 x_2 0 n)))
 (let ((?x9998 (stack_t x_0 x_1 x_2 1 n)))
 (let ((?x63 (sc_t 0)))
 (let ((?x10757 (bvadd (_ bv63 6) ?x63)))
 (let (($x1746 (bvsle ?x10757 n)))
 (or $x1746 (= ?x9998 ?x9445))))))))
 ))
 (let ((?x10757 (bvadd (_ bv63 6) ?x63)))
 (let ((?x11292 (sc_t 1)))
 (let (($x10754 (= ?x11292 ?x10757)))
 (let (($x8866 (= $x11568 (or (exc_halt_s 3) (not (bvsle (_ bv0 6) (bvadd (_ bv63 6) (sc_s 3))))))))
 (let (($x11517 (forall ((w (_ BitVec 256)) )(let ((?x59 (storage_s x_0 x_1 x_2 3 w)))
 (let ((?x6388 (storage_s x_0 x_1 x_2 4 w)))
 (= ?x6388 ?x59))))
 ))
 (let (($x11482 (forall ((n (_ BitVec 6)) )(let ((?x2264 (stack_s x_0 x_1 x_2 3 n)))
 (let ((?x11552 (stack_s x_0 x_1 x_2 4 n)))
 (or (bvsle (bvadd (_ bv63 6) (sc_s 3)) n) (= ?x11552 ?x2264)))))
 ))
 (let (($x4391 (= (used_gas_s x_0 x_1 x_2 4) (+ 2 (used_gas_s x_0 x_1 x_2 3)))))
 (let (($x292 (exc_halt_s 3)))
 (let (($x9213 (= $x292 (or (exc_halt_s 2) (not (bvsle (_ bv0 6) (bvadd (_ bv62 6) (sc_s 2))))))))
 (let (($x7499 (forall ((w (_ BitVec 256)) )(let ((?x3083 (storage_s x_0 x_1 x_2 2 w)))
 (let ((?x59 (storage_s x_0 x_1 x_2 3 w)))
 (= ?x59 ?x3083))))
 ))
 (let (($x2934 (forall ((n (_ BitVec 6)) )(let ((?x11402 (stack_s x_0 x_1 x_2 2 n)))
 (let ((?x2264 (stack_s x_0 x_1 x_2 3 n)))
 (or (bvsle (bvadd (_ bv62 6) (sc_s 2)) n) (= ?x2264 ?x11402)))))
 ))
 (let ((?x218 (sc_s 2)))
 (let ((?x275 (sc_s 3)))
 (let (($x2384 (= ?x275 ?x218)))
 (let ((?x3782 (used_gas_s x_0 x_1 x_2 3)))
 (let ((?x10597 (bvadd (_ bv63 6) ?x218)))
 (let ((?x9470 (stack_s x_0 x_1 x_2 2 ?x10597)))
 (let (($x3096 (= (stack_s x_0 x_1 x_2 3 (bvadd (_ bv63 6) ?x275)) (stack_s x_0 x_1 x_2 2 (bvadd (_ bv62 6) ?x218)))))
 (let (($x247 (exc_halt_s 2)))
 (let (($x1880 (= $x247 (or (exc_halt_s 1) (not (bvsle (_ bv0 6) (bvadd (_ bv62 6) (sc_s 1))))))))
 (let (($x2268 (forall ((w (_ BitVec 256)) )(let ((?x4683 (storage_s x_0 x_1 x_2 1 w)))
 (let ((?x3083 (storage_s x_0 x_1 x_2 2 w)))
 (= ?x3083 ?x4683))))
 ))
 (let (($x1337 (forall ((n (_ BitVec 6)) )(let ((?x11546 (stack_s x_0 x_1 x_2 1 n)))
 (let ((?x11402 (stack_s x_0 x_1 x_2 2 n)))
 (or (bvsle (bvadd (_ bv62 6) (sc_s 1)) n) (= ?x11402 ?x11546)))))
 ))
 (let ((?x154 (sc_s 1)))
 (let ((?x3369 (bvadd (_ bv63 6) ?x154)))
 (let (($x8273 (= ?x218 ?x3369)))
 (let ((?x5283 (used_gas_s x_0 x_1 x_2 2)))
 (let ((?x11373 (bvadd (_ bv62 6) ?x154)))
 (let ((?x9965 (stack_s x_0 x_1 x_2 1 ?x11373)))
 (let ((?x1489 (stack_s x_0 x_1 x_2 1 ?x3369)))
 (let (($x189 (exc_halt_s 1)))
 (let (($x9253 (= $x189 (or $x57 (not (bvsle (_ bv0 6) (bvadd (_ bv61 6) ?x72)))))))
 (let (($x2949 (forall ((w (_ BitVec 256)) )(let ((?x7153 (storage_s x_0 x_1 x_2 0 w)))
 (let ((?x4683 (storage_s x_0 x_1 x_2 1 w)))
 (= ?x4683 ?x7153))))
 ))
 (let (($x7663 (forall ((n (_ BitVec 6)) )(let ((?x72 (sc_s 0)))
 (let ((?x7944 (bvadd (_ bv61 6) ?x72)))
 (let (($x11532 (bvsle ?x7944 n)))
 (let ((?x5701 (stack_s x_0 x_1 x_2 0 n)))
 (let ((?x11546 (stack_s x_0 x_1 x_2 1 n)))
 (or (= ?x11546 ?x5701) $x11532)))))))
 ))
 (let (($x11510 (= ?x154 ?x72)))
 (let (($x4084 (= (stack_s x_0 x_1 x_2 1 (bvadd (_ bv61 6) ?x154)) (stack_s x_0 x_1 x_2 0 (bvadd (_ bv63 6) ?x72)))))
 (let (($x5876 (forall ((w (_ BitVec 256)) )(let ((?x7153 (storage_s x_0 x_1 x_2 0 w)))
 (= ?x7153 (_ bv0 256))))
 ))
 (let (($x8071 (= ?x11675 0)))
 (let (($x11555 (not $x57)))
 (let (($x6002 (= (stack_s x_0 x_1 x_2 0 (_ bv2 6)) x_2)))
 (let (($x11645 (= (stack_s x_0 x_1 x_2 0 (_ bv1 6)) x_1)))
 (let (($x9688 (= (stack_s x_0 x_1 x_2 0 (_ bv0 6)) x_0)))
 (let (($x5315 (= ?x72 (_ bv3 6))))
 (and $x5315 $x9688 $x11645 $x6002 $x11555 $x8071 $x5876 (= ?x1489 (stack_s x_0 x_1 x_2 0 (bvadd (_ bv61 6) ?x72))) $x4084 (= ?x9965 (stack_s x_0 x_1 x_2 0 (bvadd (_ bv62 6) ?x72))) (= (used_gas_s x_0 x_1 x_2 1) (+ 3 ?x11675)) $x11510 $x7663 $x2949 $x9253 (= ?x9470 (ite (= ?x1489 ?x9965) (_ bv1 256) (_ bv0 256))) (= ?x5283 (+ 3 (used_gas_s x_0 x_1 x_2 1))) $x8273 $x1337 $x2268 $x1880 $x3096 (= (stack_s x_0 x_1 x_2 3 (bvadd (_ bv62 6) ?x275)) ?x9470) (= ?x3782 (+ 3 ?x5283)) $x2384 $x2934 $x7499 $x9213 $x4391 (= ?x4305 (bvadd (_ bv63 6) ?x275)) $x11482 $x11517 $x8866 (= (used_gas_t x_0 x_1 x_2 1) (+ 2 ?x7511)) $x10754 $x8209 $x7585 $x667 $x6407 $x489 (= ?x6629 (bvadd (_ bv63 6) ?x11292)) $x5763 $x6368 $x6673 $x73 $x2619 $x58 $x11838 $x3265 (not (and $x9287 $x1769 $x3348 $x11691)))))))))))))))))))))))))))))))))))))))))))))))))))))))))))))))))))))))))))
 )
(check-sat)
(get-proof)
